\ Model sub model
\ LP format - for model browsing. Use MPS format to capture full model detail.
Minimize
  eta
Subject To
 eta=sumL: - L3[0] + eta = 0
 beta[0,0]: 820 v[0,0,1] + 402 v[0,0,2] - L3[0] <= 0
 beta[0,1]: 192 v[0,1,0] + 446 v[0,1,2] - L3[0] <= 0
 beta[0,2]: 639 v[0,2,0] + 785 v[0,2,1] - L3[0] <= 0
 gamma[0,0,0]: v[0,0,0] - u[0,0] <= 0
 gamma[0,0,1]: v[0,0,1] - u[0,1] <= 0
 gamma[0,0,2]: v[0,0,2] - u[0,2] <= 1
 gamma[0,1,0]: v[0,1,0] - u[0,0] <= 0
 gamma[0,1,1]: v[0,1,1] - u[0,1] <= 0
 gamma[0,1,2]: v[0,1,2] - u[0,2] <= 1
 gamma[0,2,0]: v[0,2,0] - u[0,0] <= 0
 gamma[0,2,1]: v[0,2,1] - u[0,1] <= 0
 gamma[0,2,2]: v[0,2,2] - u[0,2] <= 1
 delta[0,0,0]: v[0,0,0] <= 1
 delta[0,0,1]: v[0,0,1] <= 0
 delta[0,0,2]: v[0,0,2] <= 1
 delta[0,1,0]: v[0,1,0] <= 1
 delta[0,1,1]: v[0,1,1] <= 0
 delta[0,1,2]: v[0,1,2] <= 1
 delta[0,2,0]: v[0,2,0] <= 1
 delta[0,2,1]: v[0,2,1] <= 0
 delta[0,2,2]: v[0,2,2] <= 1
 epsilon[0,0]: v[0,0,0] + v[0,0,1] + v[0,0,2] = 1
 epsilon[0,1]: v[0,1,0] + v[0,1,1] + v[0,1,2] = 1
 epsilon[0,2]: v[0,2,0] + v[0,2,1] + v[0,2,2] = 1
 lamda[0,0]: u[0,0] <= 1
 lamda[0,1]: u[0,1] <= 1
 lamda[0,2]: u[0,2] <= 0
 mu[0,0]: u[0,0] <= 1
 mu[0,1]: u[0,1] <= 0
 mu[0,2]: u[0,2] <= 1
 nu[0]: u[0,0] + u[0,1] + u[0,2] = 0
Bounds
 v[0,0,0] <= 1
 v[0,0,1] <= 1
 v[0,0,2] <= 1
 v[0,1,0] <= 1
 v[0,1,1] <= 1
 v[0,1,2] <= 1
 v[0,2,0] <= 1
 v[0,2,1] <= 1
 v[0,2,2] <= 1
 u[0,0] <= 1
 u[0,1] <= 1
 u[0,2] <= 1
End
